param n = 5;
param m = 5;


param h :=
1	270
2	200
3	120
4	190
5   100
;



param c:	1	2	3	4   5 :=
 1  600  1300  2000  1200  2200
 2  1300  600  1400  1400  1300
 3  2000  1400  300  2100  1000
 4  1200  1400  2100  800  2300
 5  1700  1300  900  2100  800
;


param p :=
1  185
2  485
3  50
4  200
5  80
; 



param d :=
1  10000
2  100000
3  100000
4  700000
5  900000
;

